n=8;
hearts=56;
clubs=57;
spades=26;
diamonds=52;
blocked=6;
m=array2d(1..n, 1..n,[
	_,_,_,_,_,_,_,_,
	_,_,_,_,_,_,_,_,
	_,_,_,_,_,_,_,_,
	_,5,_,_,_,_,_,_,
	_,_,5,_,_,_,3,_,
	_,_,_,_,_,_,_,_,
	_,_,_,_,5,1,_,_,
	_,_,5,_,_,5,_,5
]);
